(set-logic QF_LRA)
(declare-fun X0 () Real )
(declare-fun Y0 () Real )
(declare-fun X1 () Real )
(declare-fun Y1 () Real )
(declare-fun X2 () Real )
(declare-fun Y2 () Real )
(declare-fun X3 () Real )
(declare-fun Y3 () Real )
(declare-fun X4 () Real )
(declare-fun Y4 () Real )
(declare-fun X5 () Real )
(declare-fun Y5 () Real )
(declare-fun Z () Real )
(assert ( and  
( or ( <= ( + X0 14 ) X1 )  ( <= ( + X1 27 ) X0 )  ( <= ( + Y0 35 ) Y1 )  ( <= ( + Y1 91 ) Y0 )  )
( or ( <= ( + X0 14 ) X2 )  ( <= ( + X2 73 ) X0 )  ( <= ( + Y0 35 ) Y2 )  ( <= ( + Y2 48 ) Y0 )  )
( or ( <= ( + X0 14 ) X3 )  ( <= ( + X3 64 ) X0 )  ( <= ( + Y0 35 ) Y3 )  ( <= ( + Y3 32 ) Y0 )  )
( or ( <= ( + X0 14 ) X4 )  ( <= ( + X4 81 ) X0 )  ( <= ( + Y0 35 ) Y4 )  ( <= ( + Y4 96 ) Y0 )  )
( or ( <= ( + X0 14 ) X5 )  ( <= ( + X5 44 ) X0 )  ( <= ( + Y0 35 ) Y5 )  ( <= ( + Y5 85 ) Y0 )  )
( or ( <= ( + X1 27 ) X2 )  ( <= ( + X2 73 ) X1 )  ( <= ( + Y1 91 ) Y2 )  ( <= ( + Y2 48 ) Y1 )  )
( or ( <= ( + X1 27 ) X3 )  ( <= ( + X3 64 ) X1 )  ( <= ( + Y1 91 ) Y3 )  ( <= ( + Y3 32 ) Y1 )  )
( or ( <= ( + X1 27 ) X4 )  ( <= ( + X4 81 ) X1 )  ( <= ( + Y1 91 ) Y4 )  ( <= ( + Y4 96 ) Y1 )  )
( or ( <= ( + X1 27 ) X5 )  ( <= ( + X5 44 ) X1 )  ( <= ( + Y1 91 ) Y5 )  ( <= ( + Y5 85 ) Y1 )  )
( or ( <= ( + X2 73 ) X3 )  ( <= ( + X3 64 ) X2 )  ( <= ( + Y2 48 ) Y3 )  ( <= ( + Y3 32 ) Y2 )  )
( or ( <= ( + X2 73 ) X4 )  ( <= ( + X4 81 ) X2 )  ( <= ( + Y2 48 ) Y4 )  ( <= ( + Y4 96 ) Y2 )  )
( or ( <= ( + X2 73 ) X5 )  ( <= ( + X5 44 ) X2 )  ( <= ( + Y2 48 ) Y5 )  ( <= ( + Y5 85 ) Y2 )  )
( or ( <= ( + X3 64 ) X4 )  ( <= ( + X4 81 ) X3 )  ( <= ( + Y3 32 ) Y4 )  ( <= ( + Y4 96 ) Y3 )  )
( or ( <= ( + X3 64 ) X5 )  ( <= ( + X5 44 ) X3 )  ( <= ( + Y3 32 ) Y5 )  ( <= ( + Y5 85 ) Y3 )  )
( or ( <= ( + X4 81 ) X5 )  ( <= ( + X5 44 ) X4 )  ( <= ( + Y4 96 ) Y5 )  ( <= ( + Y5 85 ) Y4 )  )
( >= X0 0)
( <= ( + X0 14) Z)
( >= Y0 0)
( <= ( + Y0 35 ) 122)
( >= X1 0)
( <= ( + X1 27) Z)
( >= Y1 0)
( <= ( + Y1 91 ) 122)
( >= X2 0)
( <= ( + X2 73) Z)
( >= Y2 0)
( <= ( + Y2 48 ) 122)
( >= X3 0)
( <= ( + X3 64) Z)
( >= Y3 0)
( <= ( + Y3 32 ) 122)
( >= X4 0)
( <= ( + X4 81) Z)
( >= Y4 0)
( <= ( + Y4 96 ) 122)
( >= X5 0)
( <= ( + X5 44) Z)
( >= Y5 0)
( <= ( + Y5 85 ) 122)
) )
(minimize Z)
(check-sat)
